
Gurobi 6.0.4 (win64) logging started 06/16/15 18:04:12

Read LP format model from file E:\Eigene Dateien\Downloads\Michi shit\VRPTWMS-master\VRPTWMS\instances\mip\fuel\N10-C_DV100-C_SV25_F5_1_No_1.lp
Reading time = 0.01 seconds
(null): 621 rows, 298 columns, 2643 nonzeros
Optimize a model with 621 rows, 298 columns and 2643 nonzeros
Model has 1100 quadratic constraints
WARNING: Only barrier available for SOCP models
Coefficient statistics:
  Matrix range    [1e+00, 1e+06]
  Objective range [3e+04, 1e+07]
  Bounds range    [1e+00, 1e+06]
  RHS range       [1e+00, 1e+06]
Presolve removed 52 rows and 34 columns
Presolve time: 0.06s
Presolved: 2363 rows, 1197 columns, 11911 nonzeros
Variable types: 861 continuous, 336 integer (283 binary)
Found heuristic solution: objective 1.046872e+08
Optimize a model with 2363 rows, 1197 columns and 11911 nonzeros
Coefficient statistics:
  Matrix range    [1e+00, 1e+06]
  Objective range [3e+04, 1e+07]
  Bounds range    [1e+00, 1e+06]
  RHS range       [1e+00, 1e+06]

Concurrent LP optimizer: dual simplex and barrier
Showing barrier log only...

Presolve removed 209 rows and 137 columns
Presolved: 2154 rows, 1060 columns, 10942 nonzeros

Root barrier log...

Ordering time: 0.01s

Barrier performed 0 iterations in 0.08 seconds
Barrier solve interrupted - model solved by another algorithm


Solved with dual simplex
Solved in 65 iterations and 0.09 seconds
Optimal objective  1.137243346e+07

Root relaxation: objective 1.137243e+07, 65 iterations, 0.02 seconds

    Nodes    |    Current Node    |     Objective Bounds      |     Work
 Expl Unexpl |  Obj  Depth IntInf | Incumbent    BestBd   Gap | It/Node Time

     0     0 1.1372e+07    0   21 1.0469e+08 1.1372e+07  89.1%     -    0s
H    0     0                    6.357860e+07 1.1372e+07  82.1%     -    0s
     0     0 1.1426e+07    0   40 6.3579e+07 1.1426e+07  82.0%     -    0s
     0     0 1.1489e+07    0   36 6.3579e+07 1.1489e+07  81.9%     -    0s
     0     0 1.1498e+07    0   45 6.3579e+07 1.1498e+07  81.9%     -    0s
H    0     0                    5.310890e+07 1.1498e+07  78.3%     -    0s
     0     0 1.1502e+07    0   44 5.3109e+07 1.1502e+07  78.3%     -    0s
     0     0 1.1502e+07    0   45 5.3109e+07 1.1502e+07  78.3%     -    0s
     0     0 1.1502e+07    0   43 5.3109e+07 1.1502e+07  78.3%     -    0s
     0     2 1.1502e+07    0   39 5.3109e+07 1.1502e+07  78.3%     -    0s
*  184   134              42    4.328610e+07 1.1722e+07  72.9%  21.0    0s
H  216   147                    3.275220e+07 1.1722e+07  64.2%  20.1    0s
H  286   201                    3.270950e+07 1.1722e+07  64.2%  21.0    0s
* 4773   896              48    3.258230e+07 2.1808e+07  33.1%  38.1    4s
* 5071  1007              42    3.252600e+07 2.1955e+07  32.5%  37.7    4s
* 5072   999              40    3.247850e+07 2.1955e+07  32.4%  37.7    4s
  5371  1119 2.3050e+07   39   29 3.2479e+07 2.1982e+07  32.3%  37.3    5s
 10754  2692     cutoff   37      3.2479e+07 2.2167e+07  31.7%  41.0   10s
 16413  3856 2.2556e+07   31   57 3.2479e+07 2.2298e+07  31.3%  44.6   15s
 20781  4343 infeasible   51      3.2479e+07 2.2389e+07  31.1%  47.4   23s
 22707  4430     cutoff   49      3.2479e+07 2.2433e+07  30.9%  48.6   25s
 27422  4335 2.3040e+07   33   21 3.2479e+07 2.2544e+07  30.6%  52.3   30s
 31558  3901 2.3399e+07   39   59 3.2479e+07 2.2668e+07  30.2%  55.4   35s
 35366  3300 infeasible   38      3.2479e+07 2.2798e+07  29.8%  57.7   40s
 38470  2353 2.3684e+07   49   42 3.2479e+07 2.2946e+07  29.4%  59.9   45s
 41894   844     cutoff   39      3.2479e+07 2.3332e+07  28.2%  62.2   50s

Cutting planes:
  Learned: 2
  Gomory: 1
  Cover: 3
  Implied bound: 31
  Clique: 2
  MIR: 14
  Flow cover: 21
  GUB cover: 3
  Zero half: 4

Explored 44566 nodes (2732824 simplex iterations) in 52.09 seconds
Thread count was 4 (of 4 available processors)

Optimal solution found (tolerance 1.00e-04)
Best objective 3.247850000000e+07, best bound 3.247850000000e+07, gap 0.0%
k_c1	930000.0
k_c10	110000.0
k_c2	180000.0
k_c3	1000000.0
k_c4	60000.0
k_c5	50000.0
k_c6	120000.0
k_c7	200000.0
k_c8	1000000.0
k_c9	30000.0
k_dN	0.0
o_1	0.0
o_10	0.0
o_2	0.0
o_3	0.0
o_4	0.0
o_5	0.0
o_6	0.0
o_7	0.0
o_8	0.0
o_9	0.0
p_1	0.0
p_10	0.0
p_2	0.0
p_3	0.0
p_4	0.0
p_5	0.0
p_6	1.0
p_7	0.0
p_8	0.0
p_9	0.0
phi_c1	16764.0
phi_c10	22371.0
phi_c2	4027.0
phi_c3	42795.0
phi_c4	17146.0
phi_c5	15293.0
phi_c6	2020.0
phi_c7	11011.0
phi_c8	34044.0
phi_c9	6723.0
phi_dN	0.0
pi_c1	0.0
pi_c10	0.0
pi_c2	206723.0
pi_c3	0.0
pi_c4	0.0
pi_c5	0.0
pi_c6	47980.0
pi_c7	0.0
pi_c8	0.0
pi_c9	0.0
pi_dN	0.0
tauD_c1	167275.0
tauD_c10	809075.0
tauD_c2	450000.0
tauD_c3	50000.0
tauD_c4	878600.0
tauD_c5	400000.0
tauD_c6	581650.0
tauD_c7	373900.0
tauD_c8	300000.0
tauD_c9	650000.0
tauD_d0	0.0
tauD_dN	1000000.0
tauS_c1	838375.0
tauS_c10	28125.0
tauS_c2	76150.0
tauS_c3	99600.0
tauS_c4	0.0
tauS_c5	73800.0
tauS_c6	68650.0
tauS_c7	101650.0
tauS_c8	22750.0
tauS_c9	95925.0
tauS_d0	0.0
tauS_dN	830300.0
x_c10_c4	1.0
x_c1_c7	1.0
x_c2_c6	1.0
x_c3_c1	1.0
x_c4_dN	1.0
x_c5_c9	1.0
x_c6_c10	1.0
x_c7_c2	1.0
x_c8_c5	1.0
x_c9_dN	1.0
x_d0_c3	1.0
x_d0_c8	1.0
z_c6_dN	1.0
z_d0_c6	1.0
